; SMT 2
; Generated for Z3
(set-info :source "")
(set-option :produce-models true)

(declare-fun |inv_12| ((_ BitVec 32) (_ BitVec 32) (_ BitVec 64) (_ BitVec 64) (_ BitVec 64) (Array (_ BitVec 64) (_ BitVec 64)) (Array (_ BitVec 64) (Array (_ BitVec 64) (_ BitVec 64))) ) Bool)

; find_symbols
(declare-fun |tmp| () (_ BitVec 64))
(assert (forall ((|memor_0| (Array (_ BitVec 64) (Array (_ BitVec 64) (_ BitVec 64)))) (|alloc_0| (Array (_ BitVec 64) (_ BitVec 64))) (|main::$tmp::return_value_nondet_int| (_ BitVec 32)) (|main::$tmp::return_value_nondet_int$0| (_ BitVec 32)) (|main::1::1::i| (_ BitVec 64)) (|main::1::L| (_ BitVec 64)) (|main::1::i| (_ BitVec 64)))
  (=> true 
    (|inv_12| |main::$tmp::return_value_nondet_int| |main::$tmp::return_value_nondet_int$0| |main::1::1::i| |main::1::L| |main::1::i| |alloc_0| |memor_0|))))

(declare-fun |inv_11| ((_ BitVec 32) (_ BitVec 64) (_ BitVec 64) (_ BitVec 64) (Array (_ BitVec 64) (_ BitVec 64)) (Array (_ BitVec 64) (Array (_ BitVec 64) (_ BitVec 64))) ) Bool)

(assert (forall ((|memor_0| (Array (_ BitVec 64) (Array (_ BitVec 64) (_ BitVec 64)))) (|alloc_0| (Array (_ BitVec 64) (_ BitVec 64))) (|main::$tmp::return_value_nondet_int$0| (_ BitVec 32)) (|main::$tmp::return_value_nondet_int$0_1| (_ BitVec 32)) (|main::$tmp::return_value_nondet_int_1| (_ BitVec 32)) (|main::1::1::i| (_ BitVec 64)) (|main::1::1::i_1| (_ BitVec 64)) (|main::1::L| (_ BitVec 64)) (|main::1::L_1| (_ BitVec 64)) (|main::1::i| (_ BitVec 64)) (|main::1::i_1| (_ BitVec 64)))
  (=> (and 
    (|inv_12| |main::$tmp::return_value_nondet_int_1| |main::$tmp::return_value_nondet_int$0_1| |main::1::1::i_1| |main::1::L_1| |main::1::i_1| |alloc_0| |memor_0|)
       (= |main::$tmp::return_value_nondet_int$0_1| |main::$tmp::return_value_nondet_int$0|)
       (= |main::1::1::i_1| |main::1::1::i|)
       (= ((_ sign_extend 32) |main::$tmp::return_value_nondet_int_1|) |main::1::L|)
       (= |main::1::i_1| |main::1::i|)) 
    (|inv_11| |main::$tmp::return_value_nondet_int$0| |main::1::1::i| |main::1::L| |main::1::i| |alloc_0| |memor_0|))))

(assert (forall ((|memor_0| (Array (_ BitVec 64) (Array (_ BitVec 64) (_ BitVec 64)))) (|alloc_0| (Array (_ BitVec 64) (_ BitVec 64))) (|main::$tmp::return_value_nondet_int$0| (_ BitVec 32)) (|main::1::1::i| (_ BitVec 64)) (|main::1::L| (_ BitVec 64)) (|main::1::i| (_ BitVec 64)))
  (=> (and 
    (|inv_11| |main::$tmp::return_value_nondet_int$0| |main::1::1::i| |main::1::L| |main::1::i| |alloc_0| |memor_0|)
       (not (bvugt |main::1::L| (_ bv0 64)))) true)))

(declare-fun |inv_10| ((_ BitVec 32) (_ BitVec 64) (_ BitVec 64) (_ BitVec 64) (Array (_ BitVec 64) (_ BitVec 64)) (Array (_ BitVec 64) (Array (_ BitVec 64) (_ BitVec 64))) ) Bool)

(assert (forall ((|memor_0| (Array (_ BitVec 64) (Array (_ BitVec 64) (_ BitVec 64)))) (|alloc_0| (Array (_ BitVec 64) (_ BitVec 64))) (|main::$tmp::return_value_nondet_int$0| (_ BitVec 32)) (|main::1::1::i| (_ BitVec 64)) (|main::1::L| (_ BitVec 64)) (|main::1::i| (_ BitVec 64)))
  (=> (and 
    (|inv_11| |main::$tmp::return_value_nondet_int$0| |main::1::1::i| |main::1::L| |main::1::i| |alloc_0| |memor_0|)
       (bvugt |main::1::L| (_ bv0 64))) 
    (|inv_10| |main::$tmp::return_value_nondet_int$0| |main::1::1::i| |main::1::L| |main::1::i| |alloc_0| |memor_0|))))

(declare-fun |inv_8| ((_ BitVec 32) (_ BitVec 64) (_ BitVec 64) (_ BitVec 64) (Array (_ BitVec 64) (_ BitVec 64)) (Array (_ BitVec 64) (Array (_ BitVec 64) (_ BitVec 64))) ) Bool)

(assert (forall ((|memor_0| (Array (_ BitVec 64) (Array (_ BitVec 64) (_ BitVec 64)))) (|alloc_0| (Array (_ BitVec 64) (_ BitVec 64))) (|alloc_1| (Array (_ BitVec 64) (_ BitVec 64))) (|alloc_2| (Array (_ BitVec 64) (_ BitVec 64))) (|main::$tmp::return_value_nondet_int$0| (_ BitVec 32)) (|main::$tmp::return_value_nondet_int$0_1| (_ BitVec 32)) (|main::1::1::i| (_ BitVec 64)) (|main::1::1::i_1| (_ BitVec 64)) (|main::1::L| (_ BitVec 64)) (|main::1::L_1| (_ BitVec 64)) (|main::1::i| (_ BitVec 64)) (|main::1::i_1| (_ BitVec 64)))
  (=> (and 
    (|inv_10| |main::$tmp::return_value_nondet_int$0_1| |main::1::1::i_1| |main::1::L_1| |main::1::i_1| |alloc_2| |memor_0|)
       (= |alloc_0| (store |alloc_1| (_ bv6053561456450 64) (_ bv6053561456450 64)))
       (= |alloc_1| (store |alloc_2| (_ bv9363835545496 64) (_ bv9363835545496 64)))
       (= |main::$tmp::return_value_nondet_int$0_1| |main::$tmp::return_value_nondet_int$0|)
       (= (_ bv0 64) |main::1::1::i|)
       (= |main::1::L_1| |main::1::L|)
       (= |main::1::i_1| |main::1::i|)) 
    (|inv_8| |main::$tmp::return_value_nondet_int$0| |main::1::1::i| |main::1::L| |main::1::i| |alloc_0| |memor_0|))))

(declare-fun |inv_9| ((_ BitVec 32) (_ BitVec 64) (_ BitVec 64) (_ BitVec 64) (Array (_ BitVec 64) (_ BitVec 64)) (Array (_ BitVec 64) (Array (_ BitVec 64) (_ BitVec 64))) ) Bool)

(assert (forall ((|memor_0| (Array (_ BitVec 64) (Array (_ BitVec 64) (_ BitVec 64)))) (|alloc_0| (Array (_ BitVec 64) (_ BitVec 64))) (|main::$tmp::return_value_nondet_int$0| (_ BitVec 32)) (|main::1::1::i| (_ BitVec 64)) (|main::1::L| (_ BitVec 64)) (|main::1::i| (_ BitVec 64)))
  (=> (and 
    (|inv_8| |main::$tmp::return_value_nondet_int$0| |main::1::1::i| |main::1::L| |main::1::i| |alloc_0| |memor_0|)
       (not (bvuge |main::1::1::i| (bvmul (_ bv2 64) |main::1::L|)))) 
    (|inv_9| |main::$tmp::return_value_nondet_int$0| |main::1::1::i| |main::1::L| |main::1::i| |alloc_0| |memor_0|))))

(assert (forall ((|memor_0| (Array (_ BitVec 64) (Array (_ BitVec 64) (_ BitVec 64)))) (|memor_1| (Array (_ BitVec 64) (Array (_ BitVec 64) (_ BitVec 64)))) (|memor_2| (Array (_ BitVec 64) (Array (_ BitVec 64) (_ BitVec 64)))) (|alloc_0| (Array (_ BitVec 64) (_ BitVec 64))) (|main::$tmp::return_value_nondet_int$0| (_ BitVec 32)) (|main::$tmp::return_value_nondet_int$0_1| (_ BitVec 32)) (|main::1::1::i| (_ BitVec 64)) (|main::1::1::i_1| (_ BitVec 64)) (|main::1::L| (_ BitVec 64)) (|main::1::L_1| (_ BitVec 64)) (|main::1::i| (_ BitVec 64)) (|main::1::i_1| (_ BitVec 64)))
  (=> (and 
    (|inv_9| |main::$tmp::return_value_nondet_int$0_1| |main::1::1::i_1| |main::1::L_1| |main::1::i_1| |alloc_0| |memor_2|)
       (= |memor_0| (store |memor_1| (select |alloc_0| (_ bv6053561456450 64)) (store (select |memor_1| (select |alloc_0| (_ bv6053561456450 64))) (bvadd |main::1::1::i_1| (_ bv1 64)) (bvadd (select (select |memor_1| (select |alloc_0| (_ bv9363835545496 64))) |main::1::1::i_1|) (_ bv1 64)))))
       (= |memor_1| (store |memor_2| (select |alloc_0| (_ bv9363835545496 64)) (store (select |memor_2| (select |alloc_0| (_ bv9363835545496 64))) |main::1::1::i_1| |main::1::1::i_1|)))
       (= |main::$tmp::return_value_nondet_int$0_1| |main::$tmp::return_value_nondet_int$0|)
       (= (bvadd |main::1::1::i_1| (_ bv2 64)) |main::1::1::i|)
       (= |main::1::L_1| |main::1::L|)
       (= |main::1::i_1| |main::1::i|)) 
    (|inv_8| |main::$tmp::return_value_nondet_int$0| |main::1::1::i| |main::1::L| |main::1::i| |alloc_0| |memor_0|))))

(declare-fun |inv_7| ((_ BitVec 64) (_ BitVec 64) (Array (_ BitVec 64) (_ BitVec 64)) (Array (_ BitVec 64) (Array (_ BitVec 64) (_ BitVec 64))) ) Bool)

(assert (forall ((|memor_0| (Array (_ BitVec 64) (Array (_ BitVec 64) (_ BitVec 64)))) (|alloc_0| (Array (_ BitVec 64) (_ BitVec 64))) (|main::$tmp::return_value_nondet_int$0_1| (_ BitVec 32)) (|main::1::1::i_1| (_ BitVec 64)) (|main::1::L| (_ BitVec 64)) (|main::1::L_1| (_ BitVec 64)) (|main::1::i| (_ BitVec 64)) (|main::1::i_1| (_ BitVec 64)))
  (=> (and 
    (|inv_8| |main::$tmp::return_value_nondet_int$0_1| |main::1::1::i_1| |main::1::L_1| |main::1::i_1| |alloc_0| |memor_0|)
       (not (not (bvuge |main::1::1::i_1| (bvmul (_ bv2 64) |main::1::L_1|))))
       (= |main::1::L_1| |main::1::L|)
       (= ((_ sign_extend 32) |main::$tmp::return_value_nondet_int$0_1|) |main::1::i|)) 
    (|inv_7| |main::1::L| |main::1::i| |alloc_0| |memor_0|))))

(declare-fun |inv_5| ((_ BitVec 64) (_ BitVec 64) (Array (_ BitVec 64) (_ BitVec 64)) (Array (_ BitVec 64) (Array (_ BitVec 64) (_ BitVec 64))) ) Bool)

(assert (forall ((|memor_0| (Array (_ BitVec 64) (Array (_ BitVec 64) (_ BitVec 64)))) (|alloc_0| (Array (_ BitVec 64) (_ BitVec 64))) (|main::1::L| (_ BitVec 64)) (|main::1::i| (_ BitVec 64)))
  (=> 
    (|inv_7| |main::1::L| |main::1::i| |alloc_0| |memor_0|) 
    (|inv_5| |main::1::L| |main::1::i| |alloc_0| |memor_0|))))

(declare-fun |inv_6| ((_ BitVec 64) (_ BitVec 64) (Array (_ BitVec 64) (_ BitVec 64)) (Array (_ BitVec 64) (Array (_ BitVec 64) (_ BitVec 64))) ) Bool)

(assert (forall ((|memor_0| (Array (_ BitVec 64) (Array (_ BitVec 64) (_ BitVec 64)))) (|alloc_0| (Array (_ BitVec 64) (_ BitVec 64))) (|main::1::L| (_ BitVec 64)) (|main::1::i| (_ BitVec 64)))
  (=> (and 
    (|inv_7| |main::1::L| |main::1::i| |alloc_0| |memor_0|)
       (not (not (bvuge |main::1::i| (bvmul (_ bv2 64) |main::1::L|))))) 
    (|inv_6| |main::1::L| |main::1::i| |alloc_0| |memor_0|))))

(declare-fun |inv_1| ((Array (_ BitVec 64) (_ BitVec 64)) (Array (_ BitVec 64) (Array (_ BitVec 64) (_ BitVec 64))) ) Bool)

(assert (forall ((|memor_0| (Array (_ BitVec 64) (Array (_ BitVec 64) (_ BitVec 64)))) (|alloc_0| (Array (_ BitVec 64) (_ BitVec 64))) (|main::1::L| (_ BitVec 64)) (|main::1::i| (_ BitVec 64)))
  (=> 
    (|inv_6| |main::1::L| |main::1::i| |alloc_0| |memor_0|) 
    (|inv_1| |alloc_0| |memor_0|))))

(declare-fun |inv_3| ((_ BitVec 64) (Array (_ BitVec 64) (_ BitVec 64)) (Array (_ BitVec 64) (Array (_ BitVec 64) (_ BitVec 64))) ) Bool)

(assert (forall ((|memor_0| (Array (_ BitVec 64) (Array (_ BitVec 64) (_ BitVec 64)))) (|alloc_0| (Array (_ BitVec 64) (_ BitVec 64))) (|main::1::L| (_ BitVec 64)) (|main::1::i| (_ BitVec 64)))
  (=> (and 
    (|inv_5| |main::1::L| |main::1::i| |alloc_0| |memor_0|)
       (not (bvuge |main::1::i| (bvmul (_ bv2 64) |main::1::L|)))) 
    (|inv_3| |main::1::i| |alloc_0| |memor_0|))))

(assert (forall ((|memor_0| (Array (_ BitVec 64) (Array (_ BitVec 64) (_ BitVec 64)))) (|alloc_0| (Array (_ BitVec 64) (_ BitVec 64))) (|main::1::i| (_ BitVec 64)))
  (=> (and 
    (|inv_3| |main::1::i| |alloc_0| |memor_0|)
       (not (= (select (select |memor_0| (select |alloc_0| (_ bv9363835545496 64))) |main::1::i|) |main::1::i|))) false)))

(declare-fun |inv_2| ((Array (_ BitVec 64) (_ BitVec 64)) (Array (_ BitVec 64) (Array (_ BitVec 64) (_ BitVec 64))) ) Bool)

(assert (forall ((|memor_0| (Array (_ BitVec 64) (Array (_ BitVec 64) (_ BitVec 64)))) (|alloc_0| (Array (_ BitVec 64) (_ BitVec 64))) (|main::1::i| (_ BitVec 64)))
  (=> (and 
    (|inv_3| |main::1::i| |alloc_0| |memor_0|)
       (= (select (select |memor_0| (select |alloc_0| (_ bv9363835545496 64))) |main::1::i|) |main::1::i|)) 
    (|inv_2| |alloc_0| |memor_0|))))

(assert (forall ((|memor_0| (Array (_ BitVec 64) (Array (_ BitVec 64) (_ BitVec 64)))) (|alloc_0| (Array (_ BitVec 64) (_ BitVec 64))))
  (=> 
    (|inv_2| |alloc_0| |memor_0|) 
    (|inv_1| |alloc_0| |memor_0|))))

(assert (forall ((|memor_0| (Array (_ BitVec 64) (Array (_ BitVec 64) (_ BitVec 64)))) (|alloc_0| (Array (_ BitVec 64) (_ BitVec 64))))
  (=> 
    (|inv_1| |alloc_0| |memor_0|) true)))

(check-sat)